750
[88,93,94,95,98,104,112,120,123,127,130,133,139,144,149,160,176,181,183,186,190,195,197,199,207,213,225,228,232,240,244,251,252,254,264,266,267,270,278,285,293,302,307,308,311,313,315,318,324,326,328,332,333,334,338,355,363,367,393,394,405,406,431,436,444,449,457,460,467,468,472,479,480,487,491,493,498,502,509,515,526,529,538,542,546,551,552,553,559,569,580,588,592]
[1,1,2,1,1,1,1,1,1,1,1,1,1,1,1,1,1,1,2,1,2,2,1,2,1,1,1,1,1,1,1,2,1,1,1,1,1,1,1,1,1,1,1,1,1,1,1,1,1,1,1,1,1,1,1,1,1,1,1,2,1,1,1,1,1,1,1,1,1,1,1,1,1,1,1,1,1,1,1,1,1,1,1,1,1,1,1,1,1,1,1,1,1]
